11,3	0,0	14,2	16,7	0,0	0,0	0,0	0,0	0,0	10,3
10,0	13,2	0,0	14,5	13,6	0,0	0,0	11,0	0,0	0,0
0,0	0,0	11,5	0,0	13,3	11,4	0,0	0,0	15,7	0,0
10,0	0,0	13,4	0,0	0,0	0,0	13,4	0,0	0,0	0,0
0,0	8,5	0,0	12,1	19,6	0,0	0,0	8,1	0,0	0,0
0,0	9,8	19,9	0,0	11,8	13,6	0,0	0,0	5,9	0,0
0,0	5,1	0,0	11,0	0,0	0,0	9,4	0,0	0,0	5,5
19,1	0,0	10,4	0,0	0,0	0,0	0,0	0,0	0,0	11,1
0,0	12,9	0,0	8,0	10,3	0,0	0,0	12,5	0,0	0,0
0,0	0,0	5,4	0,0	0,0	8,8	13,9	0,0	0,0	15,5
									
4,8	2,9	4,6	4,2	3,5	2,8	3,3	3,1	4,0	4,5
